************************************************************************
file with basedata            : mm43_.bas
initial value random generator: 550305761
************************************************************************
projects                      :  1
jobs (incl. supersource/sink ):  12
horizon                       :  76
RESOURCES
  - renewable                 :  2   R
  - nonrenewable              :  2   N
  - doubly constrained        :  0   D
************************************************************************
PROJECT INFORMATION:
pronr.  #jobs rel.date duedate tardcost  MPM-Time
    1     10      0        9        8        9
************************************************************************
PRECEDENCE RELATIONS:
jobnr.    #modes  #successors   successors
   0        1          3           1   2   3
   1        3          1           6
   2        3          2           5   8
   3        3          3           4   5   7
   4        3          2           9  10
   5        3          1          10
   6        3          1           8
   7        3          2           9  10
   8        3          1          11
   9        3          1          11
  10        3          1          11
  11        1          0        
************************************************************************
REQUESTS/DURATIONS:
jobnr. mode duration  R 1  R 2  R 3  R 4  E(W 1)  E(W 2)
------------------------------------------------------------------------
  0      1     0       0    0    0    0     0       0
  1      1     5       3    4    0    3    35      15
  2      1     2       7    7    4    0    28       8
  3      1     3       4    8    0    6    36      18
  4      1     2       1    9    5    0    22      10
  5      1     3       4    9    8    0    39      24
  6      1     2       3    8    0    6    22      12
  7      1     3       9    8    0    9    51      27
  8      1     1       8    7    1    0    15       2
  9      1     3       5    3    0    8    24      24
 10      1     1       9    7    0   10    16      10
 11      1     0       0    0    0    0     0       0
************************************************************************
RESOURCEAVAILABILITIES:
  R 1  R 2
   32   84
************************************************************************
RESOURCE LIMITS:
jobnr.  l(R 1)  u(R 1)  l(R 2)  u(R 2)
------------------------------------------------------------------------
  0        0       0       0       0
  1        4       7       2       3
  2        8      14       2       4
  3        6      12       3       6
  4        6      11       3       5
  5        7      13       4       8
  6        6      11       3       6
  7        9      17       5       9
  8        8      15       1       2
  9        5       8       4       8
 10        9      16       5      10
 11        0       0       0       0
************************************************************************
SCENARIOS:
------------------------------------------------------------------------
RESOURCE k = 1
s = 1: (0, 25, 35, 27, 23, 47, 18, 58, 21, 27, 17, 0)
s = 2: (0, 32, 24, 23, 25, 31, 28, 43, 16, 28, 23, 0)
s = 3: (0, 21, 35, 31, 17, 24, 21, 33, 9, 21, 12, 0)
s = 4: (0, 29, 33, 38, 15, 53, 31, 61, 13, 23, 14, 0)
s = 5: (0, 32, 31, 40, 19, 41, 18, 40, 13, 19, 10, 0)
s = 6: (0, 22, 29, 51, 35, 27, 23, 64, 13, 38, 17, 0)
s = 7: (0, 48, 31, 28, 15, 58, 15, 73, 11, 23, 14, 0)
s = 8: (0, 27, 18, 38, 33, 23, 14, 59, 21, 18, 21, 0)
s = 9: (0, 61, 35, 28, 28, 24, 14, 39, 12, 13, 19, 0)
s = 10: (0, 28, 26, 39, 20, 29, 17, 73, 12, 22, 12, 0)
s = 11: (0, 32, 28, 30, 23, 52, 19, 59, 14, 21, 15, 0)
s = 12: (0, 41, 42, 45, 31, 24, 13, 39, 22, 25, 19, 0)
s = 13: (0, 21, 47, 37, 23, 44, 20, 46, 17, 15, 19, 0)
s = 14: (0, 32, 25, 27, 22, 30, 22, 62, 11, 22, 13, 0)
s = 15: (0, 36, 23, 19, 17, 51, 16, 53, 16, 34, 22, 0)
s = 16: (0, 30, 16, 54, 28, 50, 27, 42, 12, 16, 18, 0)
s = 17: (0, 27, 23, 45, 12, 41, 21, 31, 19, 27, 11, 0)
s = 18: (0, 45, 47, 53, 31, 25, 19, 75, 16, 33, 28, 0)
s = 19: (0, 25, 41, 39, 24, 37, 23, 46, 21, 19, 13, 0)
s = 20: (0, 27, 24, 25, 23, 39, 25, 66, 14, 25, 13, 0)
s = 21: (0, 34, 34, 45, 14, 55, 29, 40, 19, 19, 15, 0)
s = 22: (0, 26, 19, 39, 16, 46, 15, 63, 21, 38, 24, 0)
s = 23: (0, 34, 26, 25, 24, 34, 19, 55, 16, 27, 12, 0)
s = 24: (0, 50, 29, 28, 14, 24, 13, 34, 10, 27, 14, 0)
s = 25: (0, 53, 16, 54, 30, 36, 31, 62, 20, 19, 19, 0)
s = 26: (0, 40, 36, 25, 21, 31, 33, 49, 18, 43, 18, 0)
s = 27: (0, 30, 29, 43, 22, 32, 25, 33, 15, 30, 20, 0)
s = 28: (0, 37, 17, 56, 17, 30, 23, 31, 10, 20, 16, 0)
s = 29: (0, 23, 42, 30, 27, 45, 26, 71, 19, 28, 16, 0)
s = 30: (0, 25, 43, 29, 28, 50, 27, 41, 14, 29, 13, 0)
s = 31: (0, 35, 34, 53, 24, 34, 31, 51, 10, 22, 16, 0)
s = 32: (0, 34, 33, 20, 32, 50, 21, 51, 11, 23, 22, 0)
s = 33: (0, 23, 29, 43, 26, 27, 24, 63, 19, 24, 13, 0)
s = 34: (0, 29, 26, 35, 22, 45, 28, 57, 8, 15, 18, 0)
s = 35: (0, 46, 39, 48, 18, 48, 26, 34, 15, 19, 19, 0)
s = 36: (0, 35, 25, 26, 13, 33, 17, 82, 12, 22, 16, 0)
s = 37: (0, 35, 27, 37, 18, 63, 19, 38, 18, 30, 20, 0)
s = 38: (0, 46, 16, 25, 18, 47, 26, 59, 17, 26, 25, 0)
s = 39: (0, 35, 44, 31, 24, 56, 20, 40, 10, 40, 12, 0)
s = 40: (0, 40, 31, 36, 32, 31, 21, 49, 14, 45, 21, 0)
s = 41: (0, 41, 19, 34, 28, 40, 26, 51, 16, 17, 15, 0)
s = 42: (0, 26, 36, 38, 24, 44, 21, 41, 16, 27, 16, 0)
s = 43: (0, 34, 41, 31, 14, 33, 19, 66, 14, 37, 14, 0)
s = 44: (0, 25, 23, 46, 23, 52, 25, 62, 10, 26, 15, 0)
s = 45: (0, 28, 25, 19, 18, 48, 26, 52, 10, 34, 14, 0)
s = 46: (0, 25, 20, 40, 20, 51, 19, 39, 10, 25, 24, 0)
s = 47: (0, 41, 43, 58, 17, 34, 31, 50, 16, 21, 14, 0)
s = 48: (0, 28, 27, 31, 20, 40, 21, 29, 17, 18, 11, 0)
s = 49: (0, 42, 24, 32, 28, 32, 17, 38, 9, 29, 16, 0)
s = 50: (0, 42, 22, 39, 22, 35, 33, 82, 11, 25, 19, 0)
s = 51: (0, 30, 29, 49, 13, 44, 23, 45, 17, 31, 18, 0)
s = 52: (0, 28, 34, 34, 20, 32, 27, 76, 17, 28, 21, 0)
s = 53: (0, 41, 26, 38, 16, 38, 36, 76, 13, 22, 24, 0)
s = 54: (0, 25, 38, 25, 16, 22, 18, 70, 18, 26, 22, 0)
s = 55: (0, 50, 20, 33, 14, 44, 37, 67, 13, 28, 11, 0)
s = 56: (0, 43, 37, 25, 20, 35, 20, 52, 11, 33, 15, 0)
s = 57: (0, 26, 19, 38, 26, 38, 14, 64, 11, 20, 17, 0)
s = 58: (0, 43, 35, 25, 25, 30, 16, 57, 18, 17, 15, 0)
s = 59: (0, 37, 27, 52, 21, 36, 17, 45, 26, 29, 21, 0)
s = 60: (0, 39, 32, 43, 21, 52, 21, 70, 18, 35, 24, 0)
s = 61: (0, 42, 25, 49, 24, 26, 20, 39, 15, 33, 17, 0)
s = 62: (0, 27, 43, 30, 19, 29, 27, 68, 23, 23, 16, 0)
s = 63: (0, 25, 30, 22, 32, 27, 19, 37, 17, 20, 26, 0)
s = 64: (0, 36, 42, 41, 19, 40, 19, 43, 14, 21, 15, 0)
s = 65: (0, 39, 15, 45, 17, 71, 30, 49, 10, 28, 17, 0)
s = 66: (0, 31, 41, 51, 16, 32, 16, 61, 26, 18, 21, 0)
s = 67: (0, 19, 39, 30, 18, 38, 17, 45, 11, 25, 15, 0)
s = 68: (0, 35, 30, 38, 16, 41, 15, 43, 15, 15, 22, 0)
s = 69: (0, 23, 18, 33, 27, 32, 20, 77, 18, 24, 12, 0)
s = 70: (0, 28, 35, 57, 21, 56, 17, 60, 19, 22, 16, 0)
s = 71: (0, 42, 38, 26, 26, 53, 25, 63, 10, 23, 18, 0)
s = 72: (0, 35, 38, 46, 25, 36, 18, 41, 14, 17, 19, 0)
s = 73: (0, 23, 23, 19, 13, 59, 33, 55, 18, 20, 11, 0)
s = 74: (0, 42, 34, 42, 15, 47, 36, 55, 9, 33, 11, 0)
s = 75: (0, 36, 28, 27, 22, 42, 17, 49, 15, 32, 16, 0)
s = 76: (0, 44, 34, 32, 18, 26, 14, 33, 12, 15, 15, 0)
s = 77: (0, 27, 28, 31, 29, 27, 20, 63, 10, 28, 14, 0)
s = 78: (0, 42, 33, 29, 37, 49, 35, 52, 24, 29, 14, 0)
s = 79: (0, 31, 18, 35, 17, 57, 24, 36, 16, 32, 20, 0)
s = 80: (0, 23, 27, 24, 23, 46, 23, 79, 13, 16, 15, 0)
s = 81: (0, 28, 36, 37, 29, 25, 23, 44, 20, 20, 11, 0)
s = 82: (0, 29, 28, 47, 18, 50, 34, 48, 11, 24, 15, 0)
s = 83: (0, 36, 41, 41, 27, 61, 18, 36, 17, 29, 20, 0)
s = 84: (0, 41, 26, 32, 23, 38, 28, 62, 18, 14, 17, 0)
s = 85: (0, 25, 33, 56, 18, 22, 22, 55, 20, 35, 9, 0)
s = 86: (0, 22, 37, 30, 33, 46, 38, 71, 14, 29, 12, 0)
s = 87: (0, 65, 29, 47, 24, 43, 18, 60, 15, 27, 12, 0)
s = 88: (0, 30, 19, 24, 21, 50, 23, 57, 9, 16, 12, 0)
s = 89: (0, 47, 19, 21, 22, 29, 21, 55, 15, 16, 15, 0)
s = 90: (0, 40, 20, 35, 22, 41, 28, 40, 17, 28, 20, 0)
s = 91: (0, 36, 21, 32, 32, 29, 14, 42, 15, 32, 21, 0)
s = 92: (0, 50, 22, 32, 26, 60, 19, 48, 23, 25, 13, 0)
s = 93: (0, 39, 22, 22, 26, 23, 36, 51, 10, 17, 16, 0)
s = 94: (0, 23, 31, 34, 13, 50, 34, 38, 15, 23, 24, 0)
s = 95: (0, 44, 18, 30, 35, 22, 17, 42, 16, 23, 17, 0)
s = 96: (0, 45, 16, 43, 19, 30, 21, 49, 13, 13, 17, 0)
s = 97: (0, 39, 31, 40, 22, 39, 18, 41, 12, 21, 21, 0)
s = 98: (0, 41, 36, 64, 20, 62, 34, 60, 15, 21, 22, 0)
s = 99: (0, 58, 20, 34, 17, 26, 13, 47, 19, 26, 27, 0)
s = 100: (0, 28, 18, 43, 16, 40, 21, 59, 13, 26, 17, 0)
s = 101: (0, 37, 30, 53, 20, 49, 28, 74, 18, 20, 26, 0)
s = 102: (0, 31, 28, 23, 17, 49, 18, 75, 11, 20, 27, 0)
s = 103: (0, 53, 21, 41, 37, 52, 24, 82, 13, 24, 12, 0)
s = 104: (0, 36, 40, 30, 27, 43, 21, 37, 19, 17, 31, 0)
s = 105: (0, 22, 27, 44, 17, 61, 18, 58, 13, 38, 16, 0)
s = 106: (0, 38, 16, 43, 23, 29, 21, 52, 18, 17, 16, 0)
s = 107: (0, 40, 26, 48, 26, 25, 29, 39, 16, 16, 17, 0)
s = 108: (0, 33, 45, 33, 33, 40, 21, 67, 19, 15, 17, 0)
s = 109: (0, 30, 42, 23, 26, 35, 15, 74, 16, 35, 12, 0)
s = 110: (0, 33, 33, 40, 25, 67, 17, 60, 9, 27, 11, 0)
s = 111: (0, 52, 34, 29, 29, 36, 16, 49, 14, 28, 20, 0)
s = 112: (0, 25, 16, 36, 24, 36, 20, 48, 10, 25, 11, 0)
s = 113: (0, 40, 37, 35, 22, 45, 23, 31, 13, 29, 12, 0)
s = 114: (0, 29, 42, 40, 15, 31, 31, 47, 23, 35, 15, 0)
s = 115: (0, 21, 35, 36, 19, 43, 17, 55, 20, 20, 13, 0)
s = 116: (0, 30, 32, 35, 23, 35, 33, 41, 12, 49, 14, 0)
s = 117: (0, 61, 27, 56, 23, 60, 21, 46, 14, 14, 19, 0)
s = 118: (0, 63, 33, 30, 23, 37, 18, 75, 17, 23, 16, 0)
s = 119: (0, 50, 25, 27, 24, 37, 28, 69, 13, 16, 23, 0)
s = 120: (0, 33, 34, 30, 22, 46, 30, 54, 26, 35, 12, 0)
s = 121: (0, 25, 30, 30, 21, 25, 18, 46, 11, 24, 11, 0)
s = 122: (0, 25, 26, 39, 26, 27, 23, 69, 16, 15, 13, 0)
s = 123: (0, 38, 28, 39, 27, 41, 26, 33, 16, 23, 11, 0)
s = 124: (0, 24, 24, 26, 14, 59, 30, 35, 11, 27, 14, 0)
s = 125: (0, 31, 26, 57, 23, 31, 20, 35, 13, 25, 11, 0)
s = 126: (0, 35, 34, 32, 29, 43, 20, 33, 16, 29, 18, 0)
s = 127: (0, 32, 28, 27, 28, 54, 17, 52, 15, 25, 16, 0)
s = 128: (0, 52, 29, 43, 18, 31, 17, 30, 16, 27, 23, 0)
s = 129: (0, 39, 30, 48, 19, 39, 41, 75, 16, 14, 15, 0)
s = 130: (0, 20, 21, 32, 14, 42, 21, 69, 12, 14, 10, 0)
s = 131: (0, 31, 36, 21, 14, 71, 16, 53, 12, 26, 16, 0)
s = 132: (0, 55, 25, 36, 18, 60, 23, 32, 19, 22, 11, 0)
s = 133: (0, 39, 33, 40, 31, 56, 17, 86, 12, 17, 15, 0)
s = 134: (0, 40, 34, 32, 32, 37, 21, 54, 8, 22, 18, 0)
s = 135: (0, 44, 44, 31, 15, 55, 25, 41, 13, 21, 16, 0)
s = 136: (0, 35, 24, 29, 39, 36, 24, 40, 19, 33, 19, 0)
s = 137: (0, 45, 27, 44, 19, 36, 31, 62, 12, 16, 18, 0)
s = 138: (0, 41, 31, 42, 23, 28, 12, 70, 15, 36, 18, 0)
s = 139: (0, 33, 27, 38, 17, 42, 18, 64, 27, 19, 12, 0)
s = 140: (0, 49, 40, 30, 12, 34, 15, 73, 18, 21, 17, 0)
s = 141: (0, 29, 26, 50, 32, 23, 31, 48, 16, 16, 14, 0)
s = 142: (0, 51, 25, 49, 26, 39, 23, 50, 16, 27, 12, 0)
s = 143: (0, 35, 25, 44, 16, 33, 24, 53, 8, 15, 9, 0)
s = 144: (0, 32, 27, 38, 15, 29, 29, 36, 10, 27, 29, 0)
s = 145: (0, 45, 28, 30, 24, 40, 21, 52, 14, 14, 15, 0)
s = 146: (0, 28, 27, 21, 23, 32, 13, 61, 11, 30, 14, 0)
s = 147: (0, 23, 35, 21, 25, 37, 22, 77, 13, 28, 13, 0)
s = 148: (0, 40, 34, 53, 25, 49, 20, 40, 14, 18, 12, 0)
s = 149: (0, 27, 27, 29, 17, 25, 15, 57, 17, 27, 14, 0)
s = 150: (0, 27, 24, 28, 20, 24, 14, 40, 18, 33, 14, 0)
s = 151: (0, 27, 21, 26, 20, 50, 18, 57, 10, 20, 9, 0)
s = 152: (0, 38, 21, 36, 14, 23, 17, 52, 16, 27, 15, 0)
s = 153: (0, 33, 17, 54, 25, 49, 25, 38, 13, 14, 12, 0)
s = 154: (0, 25, 35, 42, 17, 49, 24, 64, 18, 22, 14, 0)
s = 155: (0, 35, 21, 30, 28, 43, 20, 49, 16, 26, 16, 0)
s = 156: (0, 27, 30, 51, 21, 39, 32, 39, 13, 19, 12, 0)
s = 157: (0, 51, 18, 39, 19, 31, 17, 70, 24, 30, 17, 0)
s = 158: (0, 38, 24, 26, 17, 45, 13, 30, 22, 23, 16, 0)
s = 159: (0, 40, 24, 50, 36, 40, 15, 76, 11, 27, 27, 0)
s = 160: (0, 34, 32, 25, 23, 47, 24, 77, 14, 20, 24, 0)
s = 161: (0, 30, 24, 36, 36, 55, 21, 60, 12, 23, 13, 0)
s = 162: (0, 33, 33, 36, 35, 41, 12, 51, 9, 30, 16, 0)
s = 163: (0, 25, 16, 43, 18, 43, 27, 46, 20, 20, 11, 0)
s = 164: (0, 38, 39, 26, 30, 41, 35, 71, 10, 26, 15, 0)
s = 165: (0, 29, 41, 21, 18, 71, 19, 53, 12, 22, 20, 0)
s = 166: (0, 34, 36, 45, 14, 49, 17, 81, 13, 28, 11, 0)
s = 167: (0, 29, 31, 47, 32, 38, 25, 52, 11, 25, 17, 0)
s = 168: (0, 41, 22, 46, 22, 24, 20, 36, 17, 28, 21, 0)
s = 169: (0, 28, 32, 44, 23, 25, 22, 42, 14, 22, 14, 0)
s = 170: (0, 34, 19, 52, 25, 23, 17, 56, 13, 26, 11, 0)
s = 171: (0, 38, 26, 31, 26, 58, 15, 58, 18, 33, 15, 0)
s = 172: (0, 46, 39, 32, 21, 38, 19, 54, 17, 21, 11, 0)
s = 173: (0, 38, 43, 40, 22, 46, 27, 72, 18, 22, 17, 0)
s = 174: (0, 25, 23, 56, 14, 27, 18, 34, 9, 23, 14, 0)
s = 175: (0, 28, 33, 38, 21, 53, 26, 40, 16, 17, 13, 0)
s = 176: (0, 40, 30, 46, 26, 47, 14, 46, 19, 15, 19, 0)
s = 177: (0, 47, 40, 46, 18, 47, 18, 53, 14, 31, 23, 0)
s = 178: (0, 30, 27, 50, 25, 23, 26, 45, 12, 21, 16, 0)
s = 179: (0, 45, 28, 44, 26, 38, 27, 39, 18, 29, 15, 0)
s = 180: (0, 27, 21, 42, 22, 26, 30, 53, 9, 23, 14, 0)
s = 181: (0, 34, 18, 37, 14, 29, 20, 62, 20, 15, 18, 0)
s = 182: (0, 24, 31, 37, 25, 26, 25, 47, 13, 30, 9, 0)
s = 183: (0, 29, 23, 49, 17, 39, 20, 65, 16, 25, 16, 0)
s = 184: (0, 20, 26, 34, 38, 25, 25, 48, 12, 24, 23, 0)
s = 185: (0, 45, 26, 63, 21, 24, 24, 42, 13, 29, 16, 0)
s = 186: (0, 33, 26, 42, 29, 51, 22, 53, 8, 19, 19, 0)
s = 187: (0, 26, 23, 37, 24, 38, 26, 65, 19, 31, 14, 0)
s = 188: (0, 33, 20, 25, 14, 45, 14, 52, 12, 18, 18, 0)
s = 189: (0, 23, 30, 29, 26, 42, 38, 77, 17, 30, 14, 0)
s = 190: (0, 45, 20, 37, 20, 41, 19, 46, 13, 22, 17, 0)
s = 191: (0, 30, 29, 22, 24, 33, 21, 59, 18, 27, 14, 0)
s = 192: (0, 39, 28, 49, 30, 27, 14, 61, 10, 29, 16, 0)
s = 193: (0, 20, 17, 33, 19, 24, 35, 30, 13, 27, 13, 0)
s = 194: (0, 47, 33, 54, 25, 59, 19, 42, 19, 27, 16, 0)
s = 195: (0, 44, 22, 25, 29, 34, 14, 41, 15, 16, 15, 0)
s = 196: (0, 33, 47, 43, 16, 48, 39, 49, 14, 41, 31, 0)
s = 197: (0, 27, 26, 51, 20, 36, 25, 33, 13, 17, 20, 0)
s = 198: (0, 21, 32, 63, 31, 58, 19, 43, 22, 32, 19, 0)
s = 199: (0, 43, 39, 49, 26, 36, 27, 41, 13, 31, 12, 0)
s = 200: (0, 31, 25, 38, 14, 39, 33, 44, 12, 23, 27, 0)
------------------------------------------------------------------------
RESOURCE k = 2
s = 1: (0, 11, 10, 14, 11, 29, 10, 31, 3, 27, 11, 0)
s = 2: (0, 14, 7, 12, 12, 19, 16, 23, 3, 28, 14, 0)
s = 3: (0, 9, 10, 16, 8, 15, 12, 18, 2, 21, 8, 0)
s = 4: (0, 13, 10, 19, 7, 33, 17, 32, 2, 23, 9, 0)
s = 5: (0, 14, 9, 20, 9, 26, 10, 21, 2, 19, 6, 0)
s = 6: (0, 10, 9, 26, 16, 17, 13, 34, 2, 38, 11, 0)
s = 7: (0, 21, 9, 14, 7, 36, 9, 39, 2, 23, 9, 0)
s = 8: (0, 12, 5, 19, 15, 14, 8, 32, 3, 18, 13, 0)
s = 9: (0, 26, 10, 14, 13, 15, 8, 21, 2, 13, 12, 0)
s = 10: (0, 12, 8, 20, 10, 18, 9, 39, 2, 22, 8, 0)
s = 11: (0, 14, 8, 15, 11, 32, 11, 32, 2, 21, 10, 0)
s = 12: (0, 18, 12, 23, 14, 15, 7, 21, 3, 25, 12, 0)
s = 13: (0, 9, 14, 19, 11, 27, 11, 25, 3, 15, 12, 0)
s = 14: (0, 14, 7, 14, 10, 18, 12, 33, 2, 22, 8, 0)
s = 15: (0, 16, 7, 10, 8, 32, 9, 28, 3, 34, 14, 0)
s = 16: (0, 13, 5, 27, 13, 31, 15, 23, 2, 16, 11, 0)
s = 17: (0, 12, 7, 23, 6, 25, 11, 16, 3, 27, 7, 0)
s = 18: (0, 20, 14, 27, 14, 16, 10, 40, 3, 33, 17, 0)
s = 19: (0, 11, 12, 20, 11, 23, 13, 25, 3, 19, 8, 0)
s = 20: (0, 12, 7, 13, 11, 24, 14, 35, 2, 25, 8, 0)
s = 21: (0, 15, 10, 23, 7, 34, 16, 21, 3, 19, 10, 0)
s = 22: (0, 11, 6, 20, 8, 29, 9, 33, 3, 38, 15, 0)
s = 23: (0, 15, 8, 13, 11, 21, 11, 29, 3, 27, 8, 0)
s = 24: (0, 22, 9, 14, 7, 15, 7, 18, 2, 27, 9, 0)
s = 25: (0, 23, 5, 27, 14, 22, 17, 33, 3, 19, 12, 0)
s = 26: (0, 17, 11, 13, 10, 19, 18, 26, 3, 43, 12, 0)
s = 27: (0, 13, 9, 22, 10, 20, 14, 17, 2, 30, 13, 0)
s = 28: (0, 16, 5, 28, 8, 19, 13, 17, 2, 20, 10, 0)
s = 29: (0, 10, 12, 15, 13, 28, 14, 38, 3, 28, 10, 0)
s = 30: (0, 11, 13, 15, 13, 31, 15, 22, 2, 29, 8, 0)
s = 31: (0, 15, 10, 27, 11, 21, 17, 27, 2, 22, 10, 0)
s = 32: (0, 15, 10, 10, 15, 31, 12, 27, 2, 23, 14, 0)
s = 33: (0, 10, 9, 22, 12, 17, 13, 33, 3, 24, 8, 0)
s = 34: (0, 13, 8, 18, 10, 28, 16, 30, 2, 15, 12, 0)
s = 35: (0, 20, 12, 24, 9, 29, 14, 18, 2, 19, 12, 0)
s = 36: (0, 15, 8, 13, 6, 20, 10, 44, 2, 22, 10, 0)
s = 37: (0, 15, 8, 19, 8, 39, 11, 20, 3, 30, 13, 0)
s = 38: (0, 20, 5, 13, 8, 29, 14, 31, 3, 26, 16, 0)
s = 39: (0, 15, 13, 16, 11, 34, 11, 21, 2, 40, 8, 0)
s = 40: (0, 18, 9, 18, 15, 19, 12, 26, 2, 45, 13, 0)
s = 41: (0, 18, 6, 17, 13, 25, 14, 27, 3, 17, 10, 0)
s = 42: (0, 11, 11, 19, 11, 27, 12, 22, 3, 27, 10, 0)
s = 43: (0, 15, 12, 16, 7, 20, 11, 35, 2, 37, 9, 0)
s = 44: (0, 11, 7, 23, 11, 32, 14, 33, 2, 26, 9, 0)
s = 45: (0, 12, 7, 10, 8, 30, 14, 28, 2, 34, 9, 0)
s = 46: (0, 11, 6, 20, 9, 31, 11, 21, 2, 25, 15, 0)
s = 47: (0, 18, 13, 29, 8, 21, 17, 27, 3, 21, 9, 0)
s = 48: (0, 12, 8, 16, 9, 25, 12, 15, 3, 18, 7, 0)
s = 49: (0, 18, 7, 16, 13, 20, 9, 20, 2, 29, 10, 0)
s = 50: (0, 18, 7, 20, 10, 22, 18, 44, 2, 25, 12, 0)
s = 51: (0, 13, 9, 25, 6, 28, 13, 24, 3, 31, 12, 0)
s = 52: (0, 12, 10, 17, 9, 20, 15, 40, 3, 28, 14, 0)
s = 53: (0, 18, 8, 19, 8, 24, 20, 41, 2, 22, 15, 0)
s = 54: (0, 11, 11, 13, 8, 14, 10, 37, 3, 26, 14, 0)
s = 55: (0, 22, 6, 17, 7, 28, 20, 36, 2, 28, 7, 0)
s = 56: (0, 19, 11, 13, 9, 22, 11, 28, 2, 33, 9, 0)
s = 57: (0, 11, 6, 19, 12, 24, 8, 34, 2, 20, 11, 0)
s = 58: (0, 19, 10, 13, 11, 18, 9, 31, 3, 17, 10, 0)
s = 59: (0, 16, 8, 26, 10, 22, 10, 24, 4, 29, 13, 0)
s = 60: (0, 17, 9, 22, 10, 32, 11, 37, 3, 35, 15, 0)
s = 61: (0, 18, 8, 25, 11, 16, 11, 21, 2, 33, 11, 0)
s = 62: (0, 12, 13, 15, 9, 18, 15, 36, 3, 23, 10, 0)
s = 63: (0, 11, 9, 11, 15, 17, 11, 20, 3, 20, 16, 0)
s = 64: (0, 16, 12, 21, 9, 25, 11, 23, 2, 21, 10, 0)
s = 65: (0, 17, 5, 23, 8, 44, 16, 26, 2, 28, 11, 0)
s = 66: (0, 13, 12, 26, 7, 20, 9, 32, 4, 18, 13, 0)
s = 67: (0, 8, 12, 15, 8, 23, 9, 24, 2, 25, 10, 0)
s = 68: (0, 15, 9, 19, 7, 25, 8, 23, 2, 15, 14, 0)
s = 69: (0, 10, 5, 17, 13, 20, 11, 41, 3, 24, 7, 0)
s = 70: (0, 12, 10, 29, 10, 35, 9, 32, 3, 22, 10, 0)
s = 71: (0, 18, 11, 13, 12, 33, 14, 34, 2, 23, 11, 0)
s = 72: (0, 15, 11, 23, 12, 22, 10, 22, 2, 17, 12, 0)
s = 73: (0, 10, 7, 10, 6, 37, 18, 29, 3, 20, 7, 0)
s = 74: (0, 18, 10, 21, 7, 29, 20, 29, 2, 33, 7, 0)
s = 75: (0, 16, 8, 14, 10, 26, 10, 26, 2, 32, 10, 0)
s = 76: (0, 19, 10, 16, 8, 16, 8, 18, 2, 15, 10, 0)
s = 77: (0, 12, 8, 16, 13, 17, 11, 34, 2, 28, 9, 0)
s = 78: (0, 18, 10, 15, 17, 30, 19, 28, 4, 29, 9, 0)
s = 79: (0, 14, 6, 18, 8, 35, 13, 19, 3, 32, 13, 0)
s = 80: (0, 10, 8, 12, 11, 29, 13, 42, 2, 16, 10, 0)
s = 81: (0, 12, 11, 19, 13, 16, 13, 23, 3, 20, 7, 0)
s = 82: (0, 13, 8, 24, 9, 31, 19, 26, 2, 24, 10, 0)
s = 83: (0, 16, 12, 21, 12, 38, 10, 19, 3, 29, 13, 0)
s = 84: (0, 18, 8, 16, 11, 23, 15, 33, 3, 14, 11, 0)
s = 85: (0, 11, 10, 28, 9, 14, 12, 29, 3, 35, 6, 0)
s = 86: (0, 10, 11, 15, 15, 29, 21, 38, 2, 29, 8, 0)
s = 87: (0, 28, 9, 24, 11, 27, 10, 32, 2, 27, 8, 0)
s = 88: (0, 13, 6, 12, 10, 31, 13, 30, 2, 16, 8, 0)
s = 89: (0, 20, 6, 11, 10, 18, 12, 29, 2, 16, 9, 0)
s = 90: (0, 17, 6, 18, 10, 26, 15, 21, 3, 28, 12, 0)
s = 91: (0, 16, 6, 16, 15, 18, 8, 22, 2, 32, 14, 0)
s = 92: (0, 22, 7, 16, 12, 37, 11, 26, 4, 25, 8, 0)
s = 93: (0, 17, 7, 11, 12, 14, 20, 27, 2, 17, 10, 0)
s = 94: (0, 10, 9, 17, 6, 31, 19, 21, 2, 23, 15, 0)
s = 95: (0, 19, 6, 15, 16, 14, 10, 22, 3, 23, 11, 0)
s = 96: (0, 20, 5, 22, 9, 19, 12, 26, 2, 13, 11, 0)
s = 97: (0, 17, 9, 20, 10, 24, 10, 22, 2, 21, 13, 0)
s = 98: (0, 18, 11, 32, 9, 38, 19, 32, 2, 21, 14, 0)
s = 99: (0, 25, 6, 17, 8, 16, 7, 25, 3, 26, 17, 0)
s = 100: (0, 12, 5, 22, 7, 25, 12, 31, 2, 26, 11, 0)
s = 101: (0, 16, 9, 27, 9, 31, 15, 39, 3, 20, 16, 0)
s = 102: (0, 14, 8, 12, 8, 30, 10, 40, 2, 20, 17, 0)
s = 103: (0, 23, 6, 21, 17, 32, 13, 44, 2, 24, 8, 0)
s = 104: (0, 16, 12, 15, 12, 27, 12, 20, 3, 17, 19, 0)
s = 105: (0, 10, 8, 22, 8, 38, 10, 31, 2, 38, 10, 0)
s = 106: (0, 17, 5, 22, 11, 18, 12, 28, 3, 17, 10, 0)
s = 107: (0, 18, 8, 24, 12, 15, 16, 21, 3, 16, 11, 0)
s = 108: (0, 14, 13, 17, 15, 25, 12, 36, 3, 15, 11, 0)
s = 109: (0, 13, 12, 12, 12, 22, 8, 39, 3, 35, 8, 0)
s = 110: (0, 14, 10, 20, 12, 42, 9, 32, 2, 27, 7, 0)
s = 111: (0, 22, 10, 15, 14, 22, 9, 26, 2, 28, 13, 0)
s = 112: (0, 11, 5, 18, 11, 22, 11, 25, 2, 25, 7, 0)
s = 113: (0, 18, 11, 18, 10, 28, 13, 17, 2, 29, 8, 0)
s = 114: (0, 13, 12, 20, 7, 20, 17, 25, 3, 35, 10, 0)
s = 115: (0, 9, 10, 18, 9, 27, 10, 29, 3, 20, 8, 0)
s = 116: (0, 13, 9, 18, 11, 22, 18, 22, 2, 49, 9, 0)
s = 117: (0, 26, 8, 28, 11, 37, 12, 25, 2, 14, 12, 0)
s = 118: (0, 27, 10, 15, 11, 23, 10, 40, 3, 23, 10, 0)
s = 119: (0, 22, 7, 14, 11, 23, 15, 37, 2, 16, 14, 0)
s = 120: (0, 14, 10, 15, 10, 28, 17, 29, 4, 35, 8, 0)
s = 121: (0, 11, 9, 15, 10, 15, 10, 25, 2, 24, 7, 0)
s = 122: (0, 11, 8, 20, 12, 17, 13, 37, 3, 15, 8, 0)
s = 123: (0, 17, 8, 20, 13, 25, 14, 18, 3, 23, 7, 0)
s = 124: (0, 10, 7, 13, 7, 37, 17, 19, 2, 27, 9, 0)
s = 125: (0, 14, 8, 29, 11, 19, 11, 19, 2, 25, 7, 0)
s = 126: (0, 15, 10, 16, 13, 27, 11, 18, 3, 29, 12, 0)
s = 127: (0, 14, 8, 14, 13, 34, 10, 28, 2, 25, 10, 0)
s = 128: (0, 22, 9, 22, 9, 19, 10, 16, 3, 27, 15, 0)
s = 129: (0, 17, 9, 24, 9, 24, 23, 40, 3, 14, 10, 0)
s = 130: (0, 9, 6, 16, 6, 26, 12, 37, 2, 14, 7, 0)
s = 131: (0, 14, 11, 11, 7, 44, 9, 28, 2, 26, 10, 0)
s = 132: (0, 24, 8, 18, 8, 37, 13, 17, 3, 22, 7, 0)
s = 133: (0, 17, 10, 20, 14, 35, 10, 46, 2, 17, 10, 0)
s = 134: (0, 18, 10, 16, 15, 23, 12, 29, 2, 22, 11, 0)
s = 135: (0, 19, 13, 16, 7, 34, 14, 22, 2, 21, 10, 0)
s = 136: (0, 15, 7, 15, 18, 23, 14, 21, 3, 33, 12, 0)
s = 137: (0, 19, 8, 22, 9, 22, 17, 33, 2, 16, 11, 0)
s = 138: (0, 18, 9, 21, 11, 17, 7, 37, 2, 36, 11, 0)
s = 139: (0, 14, 8, 19, 8, 26, 10, 34, 4, 19, 7, 0)
s = 140: (0, 21, 12, 15, 6, 21, 9, 39, 3, 21, 11, 0)
s = 141: (0, 13, 8, 25, 15, 14, 17, 26, 3, 16, 9, 0)
s = 142: (0, 22, 7, 25, 12, 24, 13, 27, 3, 27, 8, 0)
s = 143: (0, 15, 8, 22, 7, 21, 13, 28, 2, 15, 6, 0)
s = 144: (0, 14, 8, 19, 7, 18, 16, 19, 2, 27, 18, 0)
s = 145: (0, 19, 8, 15, 11, 25, 12, 28, 2, 14, 10, 0)
s = 146: (0, 12, 8, 11, 11, 20, 8, 32, 2, 30, 9, 0)
s = 147: (0, 10, 10, 11, 12, 23, 12, 41, 2, 28, 8, 0)
s = 148: (0, 18, 10, 27, 12, 30, 11, 21, 2, 18, 8, 0)
s = 149: (0, 12, 8, 15, 8, 16, 9, 30, 3, 27, 9, 0)
s = 150: (0, 12, 7, 14, 10, 15, 8, 21, 3, 33, 9, 0)
s = 151: (0, 12, 6, 13, 9, 31, 10, 30, 2, 20, 6, 0)
s = 152: (0, 17, 6, 18, 7, 14, 9, 28, 3, 27, 10, 0)
s = 153: (0, 15, 5, 27, 12, 30, 14, 20, 2, 14, 7, 0)
s = 154: (0, 11, 10, 21, 8, 30, 13, 34, 3, 22, 9, 0)
s = 155: (0, 15, 6, 15, 13, 27, 11, 26, 3, 26, 10, 0)
s = 156: (0, 12, 9, 26, 10, 24, 18, 21, 2, 19, 8, 0)
s = 157: (0, 22, 6, 20, 9, 19, 9, 37, 4, 30, 11, 0)
s = 158: (0, 17, 7, 13, 8, 28, 7, 16, 3, 23, 10, 0)
s = 159: (0, 18, 7, 25, 17, 25, 8, 40, 2, 27, 17, 0)
s = 160: (0, 15, 9, 13, 11, 29, 13, 41, 2, 20, 15, 0)
s = 161: (0, 13, 7, 18, 17, 34, 11, 32, 2, 23, 8, 0)
s = 162: (0, 14, 10, 18, 16, 25, 7, 27, 2, 30, 10, 0)
s = 163: (0, 11, 5, 22, 8, 27, 15, 24, 3, 20, 7, 0)
s = 164: (0, 17, 12, 13, 14, 26, 19, 38, 2, 26, 10, 0)
s = 165: (0, 13, 12, 11, 9, 44, 11, 28, 2, 22, 13, 0)
s = 166: (0, 15, 11, 23, 7, 31, 10, 43, 2, 28, 7, 0)
s = 167: (0, 13, 9, 24, 15, 24, 14, 28, 2, 25, 11, 0)
s = 168: (0, 18, 7, 23, 10, 15, 11, 20, 3, 28, 14, 0)
s = 169: (0, 12, 9, 22, 11, 16, 12, 23, 2, 22, 9, 0)
s = 170: (0, 15, 6, 26, 11, 14, 10, 30, 2, 26, 7, 0)
s = 171: (0, 16, 8, 16, 12, 36, 8, 31, 3, 33, 10, 0)
s = 172: (0, 20, 11, 16, 10, 24, 11, 29, 3, 21, 7, 0)
s = 173: (0, 17, 13, 20, 10, 29, 15, 38, 3, 22, 11, 0)
s = 174: (0, 11, 7, 28, 7, 17, 10, 18, 2, 23, 9, 0)
s = 175: (0, 12, 10, 19, 10, 33, 14, 21, 3, 17, 9, 0)
s = 176: (0, 18, 9, 23, 12, 29, 8, 24, 3, 15, 12, 0)
s = 177: (0, 20, 12, 23, 8, 29, 10, 28, 2, 31, 15, 0)
s = 178: (0, 13, 8, 25, 11, 14, 14, 24, 2, 21, 10, 0)
s = 179: (0, 19, 8, 22, 12, 24, 15, 21, 3, 29, 10, 0)
s = 180: (0, 12, 6, 21, 10, 16, 17, 28, 2, 23, 9, 0)
s = 181: (0, 15, 5, 19, 7, 18, 11, 33, 3, 15, 12, 0)
s = 182: (0, 11, 9, 19, 12, 16, 14, 25, 2, 30, 6, 0)
s = 183: (0, 13, 7, 25, 8, 24, 11, 35, 3, 25, 10, 0)
s = 184: (0, 9, 8, 17, 17, 16, 14, 25, 2, 24, 15, 0)
s = 185: (0, 20, 8, 32, 10, 15, 13, 22, 2, 29, 10, 0)
s = 186: (0, 14, 8, 21, 14, 32, 12, 28, 2, 19, 12, 0)
s = 187: (0, 11, 7, 19, 11, 24, 15, 35, 3, 31, 9, 0)
s = 188: (0, 14, 6, 13, 7, 28, 8, 28, 2, 18, 11, 0)
s = 189: (0, 10, 9, 15, 12, 26, 21, 41, 3, 30, 9, 0)
s = 190: (0, 20, 6, 19, 9, 25, 11, 25, 2, 22, 11, 0)
s = 191: (0, 13, 9, 11, 11, 21, 12, 32, 3, 27, 9, 0)
s = 192: (0, 17, 8, 25, 14, 17, 8, 33, 2, 29, 10, 0)
s = 193: (0, 9, 5, 17, 9, 15, 19, 16, 2, 27, 8, 0)
s = 194: (0, 20, 10, 27, 11, 37, 11, 22, 3, 27, 10, 0)
s = 195: (0, 19, 7, 13, 13, 21, 8, 22, 2, 16, 10, 0)
s = 196: (0, 15, 14, 22, 7, 30, 22, 26, 2, 41, 20, 0)
s = 197: (0, 12, 8, 26, 9, 22, 14, 18, 2, 17, 13, 0)
s = 198: (0, 9, 9, 32, 14, 36, 11, 23, 3, 32, 12, 0)
s = 199: (0, 19, 11, 25, 12, 22, 15, 22, 2, 31, 8, 0)
s = 200: (0, 13, 7, 19, 7, 24, 18, 24, 2, 23, 17, 0)
************************************************************************
ES/LS-VALUES:
jobnr.   ES(i)    LS(i)
------------------------------------------------------------------------
  0        0        0
  1        0       60
  2        0       64
  3        0       57
  4        5       65
  5        5       68
  6        9       70
  7        5       63
  8       12       74
  9       10       69
 10       10       74
 11       16       76
************************************************************************
BIG-M-VALUES:
M1 = 31, M2 = 132
************************************************************************
